(set-option :print-success false)
(set-logic QF_UF)
(declare-sort x73 0)
(declare-sort x75 0)
(declare-fun x78 (x75 x75) x75)
(declare-fun x32 () x75)
(declare-fun x21 (x75 x75) x75)
(declare-fun x145 () x75)
(declare-fun x45 () x75)
(declare-fun x110 () x75)
(declare-fun x41 () x75)
(assert (or (or (and (not (= (x21 x45 (x21 x45 x41)) x41)) (and (and (not (= x110 (x21 x45 (x21 x45 x110)))) (and (not (= x32 (x21 x45 (x21 x45 x32)))) (not (= x145 (x21 x45 (x21 x45 x145)))))) (not (= (x21 x45 (x21 x45 x45)) x45)))) (or (or (and (not (= (x21 x145 (x21 x145 x41)) x41)) (and (not (= x45 (x21 x145 (x21 x145 x45)))) (and (not (= x110 (x21 x145 (x21 x145 x110)))) (and (not (= x32 (x21 x145 (x21 x145 x32)))) (not (= x145 (x21 x145 (x21 x145 x145)))))))) (and (not (= (x21 x32 (x21 x32 x41)) x41)) (and (not (= x45 (x21 x32 (x21 x32 x45)))) (and (and (not (= x32 (x21 x32 (x21 x32 x32)))) (not (= (x21 x32 (x21 x32 x145)) x145))) (not (= (x21 x32 (x21 x32 x110)) x110)))))) (and (not (= x41 (x21 x110 (x21 x110 x41)))) (and (not (= (x21 x110 (x21 x110 x45)) x45)) (and (not (= x110 (x21 x110 (x21 x110 x110)))) (and (not (= x145 (x21 x110 (x21 x110 x145)))) (not (= (x21 x110 (x21 x110 x32)) x32)))))))) (and (not (= x41 (x21 x41 (x21 x41 x41)))) (and (and (and (not (= (x21 x41 (x21 x41 x145)) x145)) (not (= (x21 x41 (x21 x41 x32)) x32))) (not (= (x21 x41 (x21 x41 x110)) x110))) (not (= (x21 x41 (x21 x41 x45)) x45))))))
(assert (and (and (not (= x41 x110)) (and (and (and (and (not (= x110 x145)) (and (not (= x32 x41)) (and (and (not (= x32 x145)) (not (= x32 x110))) (not (= x32 x45))))) (not (= x145 x45))) (not (= x145 x41))) (not (= x45 x110)))) (not (= x45 x41))))
(assert (let ((x104 (x21 x110 x145)) (x122 (x21 x45 x110)) (x14 (x21 x145 x110)) (x85 (x21 x45 x145)) (x133 (x21 x45 x41)) (x119 (x21 x32 x41)) (x142 (x21 x145 x41)) (x1 (x21 x110 x110)) (x125 (x21 x41 x32)) (x102 (x21 x110 x32)) (x97 (x21 x32 x45)) (x67 (x21 x110 x45)) (x59 (x21 x45 x45)) (x2 (x21 x41 x145)) (x113 (x21 x45 x32)) (x127 (x21 x41 x45)) (x65 (x21 x110 x41)) (x92 (x21 x32 x32)) (x77 (x21 x145 x32)) (x29 (x21 x145 x45)) (x90 (x21 x41 x110)) (x89 (x21 x32 x110)) (x54 (x21 x145 x145)) (x38 (x21 x32 x145)) (x46 (x21 x41 x41))) (and (and (and (and (and (and (and (and (or (or (or (= x92 x110) (or (= x92 x145) (= x92 x32))) (= x45 x92)) (= x92 x41)) (or (= x38 x41) (or (= x45 x38) (or (= x38 x110) (or (= x38 x32) (= x145 x38)))))) (or (or (or (= x89 x110) (or (= x89 x145) (= x32 x89))) (= x45 x89)) (= x41 x89))) (or (or (or (= x110 x97) (or (= x97 x32) (= x97 x145))) (= x97 x45)) (= x97 x41))) (or (= x119 x41) (or (or (= x110 x119) (or (= x145 x119) (= x32 x119))) (= x119 x45)))) (and (or (= x142 x41) (or (= x45 x142) (or (or (= x142 x145) (= x142 x32)) (= x110 x142)))) (and (and (or (or (= x45 x14) (or (= x110 x14) (or (= x14 x145) (= x32 x14)))) (= x41 x14)) (and (or (= x41 x54) (or (= x45 x54) (or (= x110 x54) (or (= x54 x32) (= x54 x145))))) (or (= x77 x41) (or (= x77 x45) (or (= x77 x110) (or (= x77 x32) (= x145 x77))))))) (or (or (= x45 x29) (or (= x110 x29) (or (= x145 x29) (= x32 x29)))) (= x29 x41))))) (and (or (or (or (= x110 x65) (or (= x32 x65) (= x65 x145))) (= x65 x45)) (= x41 x65)) (and (or (= x67 x41) (or (= x45 x67) (or (= x67 x110) (or (= x145 x67) (= x32 x67))))) (and (or (or (= x45 x1) (or (or (= x1 x145) (= x32 x1)) (= x1 x110))) (= x1 x41)) (and (or (or (or (or (= x104 x145) (= x104 x32)) (= x110 x104)) (= x104 x45)) (= x41 x104)) (or (= x41 x102) (or (or (= x102 x110) (or (= x145 x102) (= x102 x32))) (= x45 x102)))))))) (and (and (and (and (or (or (= x45 x85) (or (= x110 x85) (or (= x85 x32) (= x145 x85)))) (= x85 x41)) (or (or (= x45 x113) (or (= x113 x110) (or (= x113 x32) (= x113 x145)))) (= x41 x113))) (or (= x122 x41) (or (= x122 x45) (or (or (= x122 x145) (= x32 x122)) (= x110 x122))))) (or (= x59 x41) (or (or (or (= x59 x145) (= x59 x32)) (= x110 x59)) (= x59 x45)))) (or (= x133 x41) (or (or (= x110 x133) (or (= x133 x32) (= x145 x133))) (= x45 x133))))) (and (and (and (or (or (or (= x110 x90) (or (= x145 x90) (= x32 x90))) (= x45 x90)) (= x41 x90)) (and (or (or (= x45 x125) (or (= x125 x110) (or (= x125 x32) (= x125 x145)))) (= x41 x125)) (or (or (= x45 x2) (or (or (= x2 x32) (= x145 x2)) (= x110 x2))) (= x41 x2)))) (or (= x127 x41) (or (= x45 x127) (or (= x127 x110) (or (= x145 x127) (= x32 x127)))))) (or (= x46 x41) (or (or (or (= x145 x46) (= x46 x32)) (= x46 x110)) (= x45 x46)))))))
(assert (let ((x92 (x21 (x21 x32 x32) x32)) (x89 (x21 (x21 x110 x110) x110)) (x97 (x21 (x21 x45 x45) x45)) (x38 (x21 (x21 x145 x145) x145)) (x119 (x21 (x21 x41 x41) x41))) (or (and (and (not (= x41 x97)) (and (not (= x89 x41)) (and (not (= x41 x92)) (not (= x38 x41))))) (not (= x119 x41))) (or (and (not (= x45 x119)) (and (not (= x97 x45)) (and (not (= x45 x89)) (and (not (= x38 x45)) (not (= x45 x92)))))) (or (and (not (= x110 x119)) (and (not (= x110 x97)) (and (not (= x89 x110)) (and (not (= x38 x110)) (not (= x92 x110)))))) (or (and (and (not (= x97 x32)) (and (not (= x89 x32)) (and (not (= x32 x92)) (not (= x38 x32))))) (not (= x119 x32))) (and (and (not (= x145 x97)) (and (not (= x145 x89)) (and (not (= x145 x38)) (not (= x145 x92))))) (not (= x119 x145)))))))))
(assert (let ((x89 (x21 x32 x110)) (x1 (x21 x110 x110)) (x122 (x21 x45 x110)) (x104 (x21 x110 x145)) (x125 (x21 x41 x32)) (x14 (x21 x145 x110)) (x90 (x21 x41 x110)) (x77 (x21 x145 x32)) (x127 (x21 x41 x45)) (x133 (x21 x45 x41)) (x65 (x21 x110 x41)) (x97 (x21 x32 x45)) (x29 (x21 x145 x45)) (x54 (x21 x145 x145)) (x67 (x21 x110 x45)) (x2 (x21 x41 x145)) (x142 (x21 x145 x41)) (x38 (x21 x32 x145)) (x59 (x21 x45 x45)) (x92 (x21 x32 x32)) (x85 (x21 x45 x145)) (x119 (x21 x32 x41)) (x113 (x21 x45 x32)) (x46 (x21 x41 x41)) (x102 (x21 x110 x32))) (or (and (not (= x41 (x21 x46 x46))) (and (not (= x45 (x21 x127 x127))) (and (and (not (= x32 (x21 x125 x125))) (not (= (x21 x2 x2) x145))) (not (= (x21 x90 x90) x110))))) (or (or (or (and (and (not (= x45 (x21 x29 x29))) (and (not (= (x21 x14 x14) x110)) (and (not (= x32 (x21 x77 x77))) (not (= (x21 x54 x54) x145))))) (not (= (x21 x142 x142) x41))) (and (and (not (= (x21 x97 x97) x45)) (and (not (= x110 (x21 x89 x89))) (and (not (= x145 (x21 x38 x38))) (not (= x32 (x21 x92 x92)))))) (not (= x41 (x21 x119 x119))))) (and (and (not (= x45 (x21 x67 x67))) (and (and (not (= x32 (x21 x102 x102))) (not (= (x21 x104 x104) x145))) (not (= (x21 x1 x1) x110)))) (not (= x41 (x21 x65 x65))))) (and (and (and (not (= x110 (x21 x122 x122))) (and (not (= (x21 x113 x113) x32)) (not (= x145 (x21 x85 x85))))) (not (= x45 (x21 x59 x59)))) (not (= x41 (x21 x133 x133))))))))
(assert (let ((x92 (= (x21 x32 x32) x32)) (x102 (= (x21 x32 x45) x32)) (x127 (= x45 (x21 x45 x41))) (x122 (= (x21 x32 x41) x32)) (x104 (= x45 (x21 x45 x145))) (x38 (= (x21 x145 x32) x145)) (x59 (= (x21 x41 x145) x41)) (x1 (= x145 (x21 x145 x45))) (x65 (= x110 (x21 x110 x45))) (x29 (= (x21 x110 x110) x110)) (x97 (= (x21 x145 x145) x145)) (x77 (= (x21 x32 x110) x32)) (x14 (= x145 (x21 x145 x110))) (x2 (= (x21 x110 x41) x110)) (x46 (= (x21 x41 x41) x41)) (x54 (= (x21 x110 x145) x110)) (x119 (= (x21 x110 x32) x110)) (x90 (= x41 (x21 x41 x45))) (x133 (= (x21 x145 x41) x145)) (x142 (= x45 (x21 x45 x32))) (x125 (= (x21 x41 x110) x41)) (x113 (= (x21 x45 x45) x45)) (x89 (= (x21 x32 x145) x32)) (x67 (= (x21 x45 x110) x45)) (x85 (= (x21 x41 x32) x41))) (or (or (or (or (or (and x133 x59) (and x85 x122)) (and x125 x2)) (and x127 x90)) (and x46 x46)) (or (or (and x127 x90) (or (or (and x65 x67) (or (and x104 x1) (and x142 x102))) (and x113 x113))) (or (or (or (and x85 x122) (or (or (and x119 x77) (or (and x92 x92) (and x38 x89))) (and x142 x102))) (or (and x133 x59) (or (or (and x14 x54) (or (and x97 x97) (and x38 x89))) (and x1 x104)))) (or (and x2 x125) (or (or (or (and x14 x54) (and x119 x77)) (and x29 x29)) (and x65 x67))))))))
(assert (let ((x119 (x21 x110 x32)) (x59 (x21 x41 x145)) (x133 (x21 x145 x41)) (x85 (x21 x41 x32)) (x66 (x21 x32 x145)) (x97 (x21 x145 x145)) (x65 (x21 x110 x45)) (x125 (x21 x41 x110)) (x46 (x21 x41 x41)) (x14 (x21 x145 x110)) (x29 (x21 x110 x110)) (x90 (x21 x41 x45)) (x67 (x21 x45 x110)) (x31 (x21 x32 x32)) (x2 (x21 x110 x41)) (x38 (x21 x145 x32)) (x95 (x21 x32 x45)) (x113 (x21 x45 x45)) (x33 (x21 x32 x41)) (x54 (x21 x110 x145)) (x104 (x21 x45 x145)) (x142 (x21 x45 x32)) (x127 (x21 x45 x41)) (x16 (x21 x32 x110)) (x1 (x21 x145 x45))) (let ((x94 (not (= x41 x59))) (x102 (not (= x95 x32))) (x10 (not (= x110 x65))) (x9 (not (= x110 x2))) (x137 (not (= x54 x110))) (x134 (not (= x145 x97))) (x122 (not (= x33 x32))) (x151 (not (= x1 x145))) (x52 (not (= x38 x145))) (x89 (not (= x66 x32))) (x115 (not (= x90 x41))) (x92 (not (= x31 x32))) (x81 (not (= x14 x145))) (x62 (not (= x41 x46))) (x138 (not (= x85 x41))) (x13 (not (= x45 x127))) (x139 (not (= x45 x142))) (x60 (not (= x133 x145))) (x159 (not (= x67 x45))) (x77 (not (= x16 x32))) (x146 (not (= x104 x45))) (x24 (not (= x45 x113))) (x37 (not (= x110 x119))) (x17 (not (= x29 x110))) (x56 (not (= x125 x41)))) (or (or (and (and (and (and (or x56 (not (= x2 x45))) (and (and (or (not (= x45 x29)) x17) (and (or x77 (not (= x119 x45))) (or x81 (not (= x45 x54))))) (or x159 (not (= x45 x65))))) (and (and (and (or x146 (not (= x1 x45))) (and (and (or x134 (not (= x45 x97))) (or (not (= x38 x45)) x89)) (or x137 (not (= x14 x45))))) (or (not (= x133 x45)) x94)) (and (or (not (= x33 x45)) x138) (and (and (or (not (= x45 x16)) x37) (and (or (not (= x45 x31)) x92) (or x52 (not (= x66 x45))))) (or (not (= x45 x95)) x139))))) (and (and (and (and (or x139 x102) (or x146 x151)) (or x159 x10)) (or x24 x24)) (or x13 x115))) (and (or x62 (not (= x45 x46))) (and (and (or x9 (not (= x45 x125))) (and (or (not (= x59 x45)) x60) (or x122 (not (= x45 x85))))) (or (not (= x90 x45)) x13)))) (or (and (and (and (and (or x56 x9) (and (and (or x17 x17) (and (or x37 x77) (or x137 x81))) (or x10 x159))) (and (and (or x138 (not (= x110 x33))) (and (and (or (not (= x110 x16)) x37) (and (or (not (= x66 x110)) x52) (or x92 (not (= x31 x110))))) (or (not (= x95 x110)) x139))) (and (or x94 (not (= x133 x110))) (and (or (not (= x110 x1)) x146) (and (or (not (= x110 x14)) x137) (and (or (not (= x38 x110)) x89) (or (not (= x97 x110)) x134))))))) (and (and (or (not (= x113 x110)) x24) (and (and (or (not (= x104 x110)) x151) (or (not (= x110 x142)) x102)) (or x10 (not (= x110 x67))))) (or (not (= x127 x110)) x115))) (and (or (not (= x46 x110)) x62) (and (and (or x9 (not (= x110 x125))) (and (or x60 (not (= x59 x110))) (or (not (= x85 x110)) x122))) (or (not (= x90 x110)) x13)))) (or (and (and (and (or (not (= x90 x32)) x13) (and (or x9 (not (= x125 x32))) (and (or x122 (not (= x32 x85))) (or (not (= x32 x59)) x60)))) (or (not (= x46 x32)) x62)) (and (and (and (or (not (= x2 x32)) x56) (and (and (and (or x81 (not (= x54 x32))) (or x77 (not (= x119 x32)))) (or x17 (not (= x32 x29)))) (or x159 (not (= x32 x65))))) (and (and (or x94 (not (= x133 x32))) (and (and (or (not (= x14 x32)) x137) (and (or x89 (not (= x38 x32))) (or x134 (not (= x97 x32))))) (or (not (= x32 x1)) x146))) (and (and (and (or x37 x77) (and (or x52 x89) (or x92 x92))) (or x102 x139)) (or x138 x122)))) (and (and (and (and (or x102 (not (= x142 x32))) (or x151 (not (= x104 x32)))) (or (not (= x67 x32)) x10)) (or (not (= x113 x32)) x24)) (or (not (= x32 x127)) x115)))) (and (and (and (and (and (and (or x17 (not (= x145 x29))) (and (or (not (= x119 x145)) x77) (or x81 (not (= x54 x145))))) (or (not (= x65 x145)) x159)) (or x56 (not (= x145 x2)))) (and (and (or (not (= x145 x33)) x138) (and (and (and (or x92 (not (= x31 x145))) (or x52 (not (= x66 x145)))) (or x37 (not (= x145 x16)))) (or x139 (not (= x145 x95))))) (and (and (or x151 x146) (and (and (or x89 x52) (or x134 x134)) (or x81 x137))) (or x94 x60)))) (and (or (not (= x127 x145)) x115) (and (and (and (or x151 (not (= x145 x104))) (or x102 (not (= x145 x142)))) (or (not (= x145 x67)) x10)) (or (not (= x145 x113)) x24)))) (and (or x62 (not (= x145 x46))) (and (or (not (= x90 x145)) x13) (and (or (not (= x145 x125)) x9) (and (or x60 (not (= x145 x59))) (or x122 (not (= x85 x145))))))))))) (and (and (and (and (and (and (or (not (= x142 x41)) x102) (or x151 (not (= x104 x41)))) (or (not (= x41 x67)) x10)) (or x24 (not (= x41 x113)))) (or x115 (not (= x41 x127)))) (and (and (and (or x159 (not (= x65 x41))) (and (or (not (= x41 x29)) x17) (and (or x81 (not (= x54 x41))) (or x77 (not (= x119 x41)))))) (or x56 (not (= x41 x2)))) (and (and (or x94 (not (= x41 x133))) (and (or (not (= x1 x41)) x146) (and (and (or (not (= x38 x41)) x89) (or (not (= x41 x97)) x134)) (or (not (= x14 x41)) x137)))) (and (or (not (= x33 x41)) x138) (and (or x139 (not (= x95 x41))) (and (or x37 (not (= x41 x16))) (and (or x92 (not (= x41 x31))) (or x52 (not (= x41 x66)))))))))) (and (or x62 x62) (and (or x13 x115) (and (or x9 x56) (and (or x94 x60) (or x122 x138))))))))))
(assert (and (and (and (not (= x110 (x21 x110 x110))) (and (not (= (x21 x32 x32) x32)) (not (= x145 (x21 x145 x145))))) (not (= (x21 x45 x45) x45))) (not (= x41 (x21 x41 x41)))))
(assert (or (or (and (not (= x41 (x21 x41 (x21 x45 x41)))) (and (not (= (x21 x45 (x21 x45 x45)) x45)) (and (not (= x110 (x21 x110 (x21 x45 x110)))) (and (not (= x145 (x21 x145 (x21 x45 x145)))) (not (= x32 (x21 x32 (x21 x45 x32)))))))) (or (and (not (= (x21 x41 (x21 x110 x41)) x41)) (and (not (= x45 (x21 x45 (x21 x110 x45)))) (and (not (= x110 (x21 x110 (x21 x110 x110)))) (and (not (= x32 (x21 x32 (x21 x110 x32)))) (not (= (x21 x145 (x21 x110 x145)) x145)))))) (or (and (and (and (and (not (= (x21 x32 (x21 x32 x32)) x32)) (not (= x145 (x21 x145 (x21 x32 x145))))) (not (= x110 (x21 x110 (x21 x32 x110))))) (not (= x45 (x21 x45 (x21 x32 x45))))) (not (= x41 (x21 x41 (x21 x32 x41))))) (and (not (= (x21 x41 (x21 x145 x41)) x41)) (and (and (and (not (= x145 (x21 x145 (x21 x145 x145)))) (not (= (x21 x32 (x21 x145 x32)) x32))) (not (= x110 (x21 x110 (x21 x145 x110))))) (not (= (x21 x45 (x21 x145 x45)) x45))))))) (and (and (and (not (= (x21 x110 (x21 x41 x110)) x110)) (and (not (= (x21 x145 (x21 x41 x145)) x145)) (not (= x32 (x21 x32 (x21 x41 x32)))))) (not (= x45 (x21 x45 (x21 x41 x45))))) (not (= x41 (x21 x41 (x21 x41 x41)))))))
(assert (and (and (= (x21 x110 x110) x45) (and (= x32 (x21 x145 x145)) (= x145 (x21 x110 x45)))) (= x41 (x21 x145 x45))))
(assert (let ((x92 (x21 x32 x32)) (x97 (x21 x45 x45)) (x38 (x21 x145 x145)) (x119 (x21 x41 x41)) (x89 (x21 x110 x110))) (or (or (and (and (not (= (x21 x45 x97) x45)) (and (and (not (= (x21 x145 x97) x145)) (not (= (x21 x32 x97) x32))) (not (= x110 (x21 x110 x97))))) (not (= x41 (x21 x41 x97)))) (or (and (and (not (= (x21 x45 x89) x45)) (and (and (not (= (x21 x145 x89) x145)) (not (= x32 (x21 x32 x89)))) (not (= (x21 x110 x89) x110)))) (not (= x41 (x21 x41 x89)))) (or (and (and (not (= (x21 x45 x92) x45)) (and (not (= x110 (x21 x110 x92))) (and (not (= (x21 x145 x92) x145)) (not (= (x21 x32 x92) x32))))) (not (= (x21 x41 x92) x41))) (and (not (= (x21 x41 x38) x41)) (and (and (not (= x110 (x21 x110 x38))) (and (not (= x32 (x21 x32 x38))) (not (= (x21 x145 x38) x145)))) (not (= (x21 x45 x38) x45))))))) (and (not (= x41 (x21 x41 x119))) (and (and (and (not (= x145 (x21 x145 x119))) (not (= x32 (x21 x32 x119)))) (not (= x110 (x21 x110 x119)))) (not (= (x21 x45 x119) x45)))))))
(assert (let ((x97 (x21 x45 x45)) (x119 (x21 x41 x41)) (x92 (x21 x32 x32)) (x38 (x21 x145 x145)) (x89 (x21 x110 x110))) (or (= (x21 x119 x119) x41) (or (or (or (= (x21 x38 x38) x145) (= x32 (x21 x92 x92))) (= (x21 x89 x89) x110)) (= (x21 x97 x97) x45)))))
(assert (let ((x67 (x21 x45 x110)) (x122 (x21 x32 x41)) (x65 (x21 x110 x45)) (x142 (x21 x45 x32)) (x1 (x21 x145 x45)) (x59 (x21 x41 x145)) (x85 (x21 x41 x32)) (x14 (x21 x145 x110)) (x104 (x21 x45 x145)) (x77 (x21 x32 x110)) (x2 (x21 x110 x41)) (x46 (= x41 (x21 x41 x41))) (x113 (= x45 (x21 x45 x45))) (x38 (x21 x145 x32)) (x119 (x21 x110 x32)) (x125 (x21 x41 x110)) (x133 (x21 x145 x41)) (x90 (x21 x41 x45)) (x92 (= (x21 x32 x32) x32)) (x102 (x21 x32 x45)) (x54 (x21 x110 x145)) (x127 (x21 x45 x41)) (x29 (= x110 (x21 x110 x110))) (x89 (x21 x32 x145)) (x97 (= (x21 x145 x145) x145))) (or (or (or (or (and x113 x113) (or (or (and (= x102 x45) (= x45 x142)) (and (= x104 x45) (= x1 x45))) (and (= x45 x65) (= x67 x45)))) (and (= x45 x127) (= x45 x90))) (or (or (and (= x110 x125) (= x110 x2)) (or (and (= x65 x110) (= x110 x67)) (or (or (and (= x14 x110) (= x110 x54)) (and (= x77 x110) (= x119 x110))) (and x29 x29)))) (or (or (and (= x122 x32) (= x85 x32)) (or (and (= x32 x102) (= x32 x142)) (or (or (and x92 x92) (and (= x38 x32) (= x89 x32))) (and (= x77 x32) (= x119 x32))))) (or (and (= x145 x59) (= x133 x145)) (or (or (or (and (= x38 x145) (= x145 x89)) (and x97 x97)) (and (= x14 x145) (= x145 x54))) (and (= x104 x145) (= x145 x1))))))) (or (or (or (or (and (= x133 x41) (= x59 x41)) (and (= x122 x41) (= x41 x85))) (and (= x125 x41) (= x41 x2))) (and (= x90 x41) (= x41 x127))) (and x46 x46)))))
(assert (or (and (and (not (= x45 (x21 (x21 x45 x41) x41))) (and (and (not (= x145 (x21 (x21 x145 x41) x41))) (not (= (x21 (x21 x32 x41) x41) x32))) (not (= x110 (x21 (x21 x110 x41) x41))))) (not (= (x21 (x21 x41 x41) x41) x41))) (or (and (not (= x41 (x21 (x21 x41 x45) x45))) (and (and (and (not (= (x21 (x21 x32 x45) x45) x32)) (not (= (x21 (x21 x145 x45) x45) x145))) (not (= x110 (x21 (x21 x110 x45) x45)))) (not (= x45 (x21 (x21 x45 x45) x45))))) (or (and (and (and (not (= x110 (x21 (x21 x110 x110) x110))) (and (not (= (x21 (x21 x32 x110) x110) x32)) (not (= x145 (x21 (x21 x145 x110) x110))))) (not (= x45 (x21 (x21 x45 x110) x110)))) (not (= x41 (x21 (x21 x41 x110) x110)))) (or (and (not (= x41 (x21 (x21 x41 x32) x32))) (and (not (= (x21 (x21 x45 x32) x32) x45)) (and (not (= x110 (x21 (x21 x110 x32) x32))) (and (not (= x32 (x21 (x21 x32 x32) x32))) (not (= x145 (x21 (x21 x145 x32) x32))))))) (and (not (= (x21 (x21 x41 x145) x145) x41)) (and (and (and (not (= (x21 (x21 x32 x145) x145) x32)) (not (= (x21 (x21 x145 x145) x145) x145))) (not (= (x21 (x21 x110 x145) x145) x110))) (not (= x45 (x21 (x21 x45 x145) x145))))))))))
(assert (not (and (and (= (x21 x41 x45) x45) (and (and (= x41 (x21 x41 x145)) (and (and (= (x21 x45 x41) x110) (and (and (and (= x145 (x21 x45 x145)) (and (= (x21 x45 x32) x45) (and (and (and (and (and (= (x21 x110 x32) x32) (and (and (= (x21 x145 x45) x41) (and (= (x21 x145 x110) x145) (and (= x32 (x21 x145 x145)) (and (and (= x145 (x21 x32 x41)) (and (= x110 (x21 x32 x45)) (and (and (= x41 (x21 x32 x32)) (= x45 (x21 x32 x145))) (= x32 (x21 x32 x110))))) (= (x21 x145 x32) x110))))) (= x45 (x21 x145 x41)))) (= (x21 x110 x145) x110)) (= (x21 x110 x110) x45)) (= x145 (x21 x110 x45))) (= x41 (x21 x110 x41))))) (= (x21 x45 x110) x41)) (= (x21 x45 x45) x32))) (= x145 (x21 x41 x32)))) (= x110 (x21 x41 x110)))) (= (x21 x41 x41) x32))))
(assert (or (or (or (and (and (and (not (= x110 (x21 x110 (x21 x110 x110)))) (and (not (= x110 (x21 x32 (x21 x110 x32)))) (not (= x110 (x21 x145 (x21 x110 x145)))))) (not (= (x21 x45 (x21 x110 x45)) x110))) (not (= x110 (x21 x41 (x21 x110 x41))))) (or (and (not (= (x21 x41 (x21 x145 x41)) x145)) (and (and (and (not (= x145 (x21 x145 (x21 x145 x145)))) (not (= x145 (x21 x32 (x21 x145 x32))))) (not (= (x21 x110 (x21 x145 x110)) x145))) (not (= x145 (x21 x45 (x21 x145 x45)))))) (and (not (= (x21 x41 (x21 x32 x41)) x32)) (and (and (and (not (= (x21 x145 (x21 x32 x145)) x32)) (not (= x32 (x21 x32 (x21 x32 x32))))) (not (= x32 (x21 x110 (x21 x32 x110))))) (not (= x32 (x21 x45 (x21 x32 x45)))))))) (and (and (not (= x45 (x21 x45 (x21 x45 x45)))) (and (and (not (= (x21 x145 (x21 x45 x145)) x45)) (not (= x45 (x21 x32 (x21 x45 x32))))) (not (= x45 (x21 x110 (x21 x45 x110)))))) (not (= x45 (x21 x41 (x21 x45 x41)))))) (and (and (and (not (= (x21 x110 (x21 x41 x110)) x41)) (and (not (= (x21 x145 (x21 x41 x145)) x41)) (not (= (x21 x32 (x21 x41 x32)) x41)))) (not (= (x21 x45 (x21 x41 x45)) x41))) (not (= (x21 x41 (x21 x41 x41)) x41)))))
(assert (let ((x54 (x21 x145 x145)) (x142 (x21 x41 x145)) (x59 (x21 x45 x45)) (x119 (x21 x41 x32)) (x46 (x21 x41 x41)) (x29 (x21 x45 x145)) (x122 (x21 x110 x45)) (x14 (x21 x110 x145)) (x102 (x21 x32 x110)) (x85 (x21 x145 x45)) (x125 (x21 x32 x41)) (x127 (x21 x45 x41)) (x133 (x21 x41 x45)) (x113 (x21 x32 x45)) (x97 (x21 x45 x32)) (x92 (x21 x32 x32)) (x77 (x21 x32 x145)) (x104 (x21 x145 x110)) (x65 (x21 x41 x110)) (x38 (x21 x145 x32)) (x2 (x21 x145 x41)) (x1 (x21 x110 x110)) (x90 (x21 x110 x41)) (x89 (x21 x110 x32)) (x67 (x21 x45 x110))) (and (and (and (not (= x133 x46)) (and (not (= x65 x46)) (and (not (= x65 x133)) (and (not (= x46 x142)) (and (and (and (not (= x119 x46)) (and (and (not (= x119 x142)) (not (= x119 x65))) (not (= x119 x133)))) (not (= x142 x65))) (not (= x142 x133))))))) (and (and (and (and (and (and (not (= x14 x90)) (and (and (and (and (not (= x122 x89)) (and (not (= x89 x1)) (not (= x14 x89)))) (not (= x89 x90))) (not (= x1 x14))) (not (= x14 x122)))) (not (= x1 x122))) (not (= x90 x1))) (not (= x90 x122))) (and (and (and (not (= x125 x102)) (and (not (= x102 x113)) (and (and (not (= x113 x77)) (and (not (= x77 x102)) (and (and (not (= x113 x92)) (and (not (= x102 x92)) (not (= x92 x77)))) (not (= x125 x92))))) (not (= x125 x77))))) (not (= x125 x113))) (and (and (not (= x2 x104)) (and (not (= x85 x104)) (and (and (and (and (not (= x38 x2)) (and (not (= x38 x85)) (and (not (= x38 x54)) (not (= x104 x38))))) (not (= x54 x104))) (not (= x85 x54))) (not (= x54 x2))))) (not (= x85 x2))))) (and (not (= x127 x59)) (and (not (= x67 x127)) (and (and (not (= x29 x127)) (and (not (= x29 x59)) (and (not (= x67 x29)) (and (not (= x97 x127)) (and (and (not (= x29 x97)) (not (= x67 x97))) (not (= x59 x97))))))) (not (= x67 x59))))))) (and (and (not (= x46 x127)) (and (not (= x90 x46)) (and (and (and (not (= x127 x2)) (and (not (= x2 x90)) (and (not (= x46 x125)) (and (not (= x127 x125)) (and (not (= x125 x90)) (not (= x2 x125))))))) (not (= x46 x2))) (not (= x127 x90))))) (and (and (and (and (and (and (not (= x104 x65)) (and (and (not (= x104 x1)) (and (and (not (= x67 x102)) (and (not (= x102 x1)) (not (= x104 x102)))) (not (= x65 x102)))) (not (= x104 x67)))) (not (= x1 x67))) (not (= x65 x1))) (not (= x65 x67))) (and (and (and (and (not (= x14 x29)) (and (not (= x142 x54)) (and (and (and (and (not (= x77 x29)) (and (not (= x14 x77)) (not (= x54 x77)))) (not (= x77 x142))) (not (= x14 x54))) (not (= x54 x29))))) (not (= x14 x142))) (not (= x29 x142))) (and (and (and (and (not (= x119 x38)) (and (not (= x97 x38)) (and (and (and (not (= x97 x92)) (and (not (= x92 x89)) (not (= x38 x92)))) (not (= x92 x119))) (not (= x38 x89))))) (not (= x89 x97))) (not (= x89 x119))) (not (= x97 x119))))) (and (not (= x133 x59)) (and (and (and (and (and (not (= x85 x122)) (and (and (not (= x113 x59)) (and (not (= x85 x113)) (not (= x122 x113)))) (not (= x113 x133)))) (not (= x85 x59))) (not (= x85 x133))) (not (= x59 x122))) (not (= x122 x133)))))))))
(assert (or (or (or (or (= (x21 x145 (x21 x145 x145)) x145) (= (x21 x32 (x21 x32 x32)) x32)) (= x110 (x21 x110 (x21 x110 x110)))) (= x45 (x21 x45 (x21 x45 x45)))) (= (x21 x41 (x21 x41 x41)) x41)))
(assert (or (and (and (and (and (not (= (x21 (x21 x41 x145) x145) x145)) (not (= x32 (x21 (x21 x41 x32) x32)))) (not (= x110 (x21 (x21 x41 x110) x110)))) (not (= x45 (x21 (x21 x41 x45) x45)))) (not (= (x21 (x21 x41 x41) x41) x41))) (or (and (and (and (and (not (= (x21 (x21 x45 x145) x145) x145)) (not (= (x21 (x21 x45 x32) x32) x32))) (not (= (x21 (x21 x45 x110) x110) x110))) (not (= (x21 (x21 x45 x45) x45) x45))) (not (= (x21 (x21 x45 x41) x41) x41))) (or (and (and (and (and (not (= x145 (x21 (x21 x110 x145) x145))) (not (= x32 (x21 (x21 x110 x32) x32)))) (not (= x110 (x21 (x21 x110 x110) x110)))) (not (= x45 (x21 (x21 x110 x45) x45)))) (not (= x41 (x21 (x21 x110 x41) x41)))) (or (and (and (and (not (= (x21 (x21 x145 x110) x110) x110)) (and (not (= x145 (x21 (x21 x145 x145) x145))) (not (= (x21 (x21 x145 x32) x32) x32)))) (not (= x45 (x21 (x21 x145 x45) x45)))) (not (= (x21 (x21 x145 x41) x41) x41))) (and (and (not (= (x21 (x21 x32 x45) x45) x45)) (and (and (not (= x145 (x21 (x21 x32 x145) x145))) (not (= x32 (x21 (x21 x32 x32) x32)))) (not (= x110 (x21 (x21 x32 x110) x110))))) (not (= (x21 (x21 x32 x41) x41) x41))))))))
(assert (let ((x151 (x21 x145 x145)) (x159 (x21 x45 x145)) (x86 (x21 x45 x110)) (x52 (x21 x32 x145)) (x31 (x21 x32 x32)) (x28 (x21 x41 x45)) (x95 (x21 x110 x32)) (x17 (x21 x145 x45)) (x148 (x21 x110 x45)) (x134 (x21 x41 x32)) (x117 (x21 x110 x41)) (x56 (x21 x145 x41)) (x50 (x21 x41 x110)) (x62 (x21 x110 x110)) (x64 (x21 x41 x41)) (x3 (x21 x45 x41)) (x37 (x21 x32 x110)) (x60 (x21 x145 x110)) (x11 (x21 x45 x45)) (x94 (x21 x110 x145)) (x139 (x21 x32 x45)) (x16 (x21 x145 x32)) (x10 (x21 x41 x145)) (x138 (x21 x32 x41)) (x33 (x21 x45 x32))) (let ((x119 (not (= x32 x95))) (x1 (not (= x32 x17))) (x18 (not (= x134 x41))) (x13 (not (= x145 x60))) (x81 (not (= x16 x145))) (x107 (not (= x110 x50))) (x38 (not (= x16 x32))) (x90 (not (= x32 x28))) (x67 (not (= x86 x32))) (x5 (not (= x139 x45))) (x146 (not (= x151 x145))) (x100 (not (= x110 x64))) (x36 (not (= x50 x45))) (x157 (not (= x145 x138))) (x125 (not (= x50 x32))) (x22 (not (= x148 x145))) (x47 (not (= x145 x33))) (x2 (not (= x117 x32))) (x48 (not (= x60 x110))) (x66 (not (= x145 x31))) (x154 (not (= x110 x138))) (x79 (not (= x110 x86))) (x42 (not (= x37 x45))) (x105 (not (= x151 x45))) (x141 (not (= x28 x41))) (x104 (not (= x159 x32))) (x61 (not (= x145 x11))) (x101 (not (= x95 x110))) (x23 (not (= x62 x110))) (x19 (not (= x86 x45))) (x49 (not (= x31 x41))) (x14 (not (= x60 x32))) (x92 (not (= x31 x32))) (x85 (not (= x32 x134))) (x69 (not (= x159 x110))) (x88 (not (= x110 x56))) (x156 (not (= x110 x117))) (x123 (not (= x145 x86))) (x121 (not (= x31 x110))) (x149 (not (= x151 x41))) (x68 (not (= x16 x110))) (x51 (not (= x31 x45))) (x102 (not (= x32 x139))) (x53 (not (= x139 x110))) (x126 (not (= x45 x10))) (x63 (not (= x33 x41))) (x29 (not (= x62 x32))) (x124 (not (= x45 x56))) (x99 (not (= x10 x145))) (x135 (not (= x64 x145))) (x4 (not (= x110 x52))) (x43 (not (= x3 x45))) (x143 (not (= x138 x41))) (x103 (not (= x60 x45))) (x46 (not (= x32 x64))) (x74 (not (= x3 x110))) (x108 (not (= x37 x41))) (x116 (not (= x110 x11))) (x129 (not (= x159 x145))) (x25 (not (= x110 x94))) (x87 (not (= x145 x134))) (x120 (not (= x145 x17))) (x147 (not (= x45 x94))) (x72 (not (= x41 x16))) (x40 (not (= x110 x134))) (x9 (not (= x94 x145))) (x59 (not (= x32 x10))) (x136 (not (= x139 x41))) (x113 (not (= x32 x11))) (x71 (not (= x110 x151))) (x83 (not (= x41 x56))) (x15 (not (= x45 x62))) (x55 (not (= x41 x60))) (x144 (not (= x94 x41))) (x80 (not (= x159 x41))) (x91 (not (= x41 x64))) (x130 (not (= x41 x52))) (x96 (not (= x45 x64))) (x77 (not (= x37 x32))) (x140 (not (= x45 x28))) (x30 (not (= x33 x45))) (x12 (not (= x45 x148))) (x6 (not (= x10 x41))) (x128 (not (= x28 x110))) (x57 (not (= x41 x95))) (x34 (not (= x134 x45))) (x98 (not (= x145 x117))) (x20 (not (= x17 x45))) (x118 (not (= x117 x41))) (x158 (not (= x145 x62))) (x7 (not (= x45 x52))) (x44 (not (= x145 x56))) (x122 (not (= x32 x138))) (x26 (not (= x37 x110))) (x35 (not (= x110 x10))) (x115 (not (= x37 x145))) (x114 (not (= x139 x145))) (x111 (not (= x11 x45))) (x132 (not (= x41 x50))) (x65 (not (= x148 x32))) (x39 (not (= x28 x145))) (x82 (not (= x110 x148))) (x24 (not (= x95 x145))) (x84 (not (= x110 x33))) (x131 (not (= x86 x41))) (x8 (not (= x138 x45))) (x142 (not (= x32 x33))) (x127 (not (= x32 x3))) (x58 (not (= x45 x159))) (x106 (not (= x41 x62))) (x109 (not (= x145 x50))) (x27 (not (= x17 x41))) (x133 (not (= x32 x56))) (x137 (not (= x145 x52))) (x93 (not (= x17 x110))) (x89 (not (= x32 x52))) (x155 (not (= x117 x45))) (x70 (not (= x145 x3))) (x54 (not (= x32 x94))) (x97 (not (= x32 x151))) (x112 (not (= x41 x11))) (x152 (not (= x3 x41))) (x76 (not (= x45 x95))) (x150 (not (= x148 x41))) (x153 (not (= x45 x16)))) (or (and (and (and (or x141 x152) (and (or x132 x118) (and (or x18 x143) (or x83 x6)))) (or x91 x91)) (and (and (and (and (or x150 x131) (and (and (or x57 x108) (or x144 x55)) (or x106 x106))) (or x132 x118)) (and (and (or x18 x143) (and (and (and (or x49 x49) (or x130 x72)) (or x57 x108)) (or x63 x136))) (and (or x83 x6) (and (or x27 x80) (and (and (or x72 x130) (or x149 x149)) (or x55 x144)))))) (and (or x141 x152) (and (or x112 x112) (and (and (or x27 x80) (or x136 x63)) (or x131 x150)))))) (or (or (or (and (and (and (or x127 x90) (and (and (or x67 x65) (and (or x104 x1) (or x102 x142))) (or x113 x113))) (and (and (and (or x122 x85) (and (and (and (or x92 x92) (or x38 x89)) (or x119 x77)) (or x142 x102))) (and (and (and (or x54 x14) (and (or x97 x97) (or x89 x38))) (or x1 x104)) (or x59 x133))) (and (and (or x67 x65) (and (and (or x54 x14) (or x119 x77)) (or x29 x29))) (or x2 x125)))) (and (or x46 x46) (and (and (or x2 x125) (and (or x85 x122) (or x59 x133))) (or x127 x90)))) (and (and (and (and (and (and (or x47 x114) (and (and (or x66 x66) (or x81 x137)) (or x115 x24))) (or x157 x87)) (and (and (and (and (or x146 x146) (or x137 x81)) (or x9 x13)) (or x120 x129)) (or x99 x44))) (and (or x109 x98) (and (and (or x158 x158) (and (or x24 x115) (or x9 x13))) (or x123 x22)))) (and (or x70 x39) (and (and (or x123 x22) (and (or x120 x129) (or x47 x114))) (or x61 x61)))) (and (or x135 x135) (and (and (or x109 x98) (and (or x99 x44) (or x87 x157))) (or x70 x39))))) (and (and (and (or x128 x74) (and (or x156 x107) (and (or x154 x40) (or x35 x88)))) (or x100 x100)) (and (and (and (or x156 x107) (and (and (and (or x48 x25) (or x101 x26)) (or x23 x23)) (or x82 x79))) (and (and (or x40 x154) (and (and (or x26 x101) (and (or x68 x4) (or x121 x121))) (or x53 x84))) (and (or x88 x35) (and (or x93 x69) (and (and (or x71 x71) (or x68 x4)) (or x48 x25)))))) (and (or x128 x74) (and (and (and (or x53 x84) (or x93 x69)) (or x79 x82)) (or x116 x116)))))) (and (and (and (or x140 x43) (and (or x111 x111) (and (or x12 x19) (and (or x20 x58) (or x5 x30))))) (and (and (and (and (or x58 x20) (and (and (or x153 x7) (or x105 x105)) (or x103 x147))) (or x124 x126)) (and (and (or x30 x5) (and (and (or x7 x153) (or x51 x51)) (or x76 x42))) (or x34 x8))) (and (or x36 x155) (and (or x19 x12) (and (or x15 x15) (and (or x42 x76) (or x147 x103))))))) (and (and (and (or x155 x36) (and (or x124 x126) (or x8 x34))) (or x43 x140)) (or x96 x96))))))))
(assert (and (and (not (= (x21 (x21 x45 x45) x45) x45)) (and (and (not (= x145 (x21 (x21 x145 x145) x145))) (not (= x32 (x21 (x21 x32 x32) x32)))) (not (= x110 (x21 (x21 x110 x110) x110))))) (not (= x41 (x21 (x21 x41 x41) x41)))))
(assert (let ((x97 (x21 x45 x45)) (x119 (x21 x41 x41)) (x89 (x21 x110 x110)) (x38 (x21 x145 x145)) (x92 (x21 x32 x32))) (or (and (not (= x41 x119)) (and (not (= x97 x41)) (and (and (not (= x92 x41)) (not (= x41 x38))) (not (= x41 x89))))) (or (or (and (not (= x110 x119)) (and (and (and (not (= x110 x92)) (not (= x38 x110))) (not (= x110 x89))) (not (= x110 x97)))) (or (and (not (= x119 x145)) (and (and (not (= x89 x145)) (and (not (= x38 x145)) (not (= x145 x92)))) (not (= x97 x145)))) (and (and (and (not (= x32 x89)) (and (not (= x32 x92)) (not (= x38 x32)))) (not (= x97 x32))) (not (= x32 x119))))) (and (not (= x45 x119)) (and (not (= x97 x45)) (and (not (= x45 x89)) (and (not (= x92 x45)) (not (= x45 x38))))))))))
(assert (let ((x2 (x21 x145 x41)) (x66 (x21 x41 x145)) (x48 (x21 x41 x45)) (x8 (x21 x41 x41)) (x119 (x21 x32 x45)) (x77 (x21 x32 x41)) (x56 (x21 x110 x110)) (x29 (x21 x110 x32)) (x89 (x21 x32 x145)) (x133 (x21 x145 x110)) (x38 (x21 x32 x32)) (x125 (x21 x145 x45)) (x97 (x21 x32 x110)) (x142 (x21 x45 x32)) (x68 (x21 x45 x45)) (x4 (x21 x45 x41)) (x62 (x21 x45 x110)) (x158 (x21 x41 x110)) (x24 (x21 x110 x41)) (x14 (x21 x145 x32)) (x102 (x21 x41 x32)) (x31 (x21 x45 x145)) (x59 (x21 x145 x145)) (x10 (x21 x110 x45)) (x46 (x21 x110 x145))) (let ((x33 (= x45 x59)) (x7 (= x41 x10)) (x22 (= x45 x56)) (x134 (= x41 x89)) (x113 (= x89 x32)) (x18 (= x102 x41)) (x149 (= x2 x110)) (x60 (= x32 x133)) (x148 (= x29 x110)) (x99 (= x31 x32)) (x27 (= x2 x45)) (x140 (= x145 x8)) (x58 (= x32 x4)) (x57 (= x24 x110)) (x64 (= x142 x145)) (x123 (= x45 x133)) (x107 (= x45 x10)) (x63 (= x45 x158)) (x105 (= x41 x68)) (x108 (= x110 x4)) (x25 (= x145 x68)) (x13 (= x145 x56)) (x153 (= x41 x125)) (x131 (= x45 x24)) (x9 (= x133 x145)) (x26 (= x10 x145)) (x34 (= x145 x48)) (x124 (= x145 x2)) (x93 (= x125 x110)) (x127 (= x59 x145)) (x109 (= x119 x32)) (x5 (= x24 x32)) (x37 (= x110 x59)) (x88 (= x125 x45)) (x40 (= x31 x45)) (x80 (= x77 x45)) (x61 (= x46 x41)) (x44 (= x32 x62)) (x146 (= x97 x32)) (x111 (= x145 x158)) (x39 (= x10 x32)) (x155 (= x4 x145)) (x92 (= x32 x38)) (x12 (= x66 x145)) (x152 (= x4 x41)) (x126 (= x77 x145)) (x20 (= x32 x8)) (x137 (= x32 x29)) (x129 (= x45 x46)) (x143 (= x66 x41)) (x28 (= x133 x41)) (x36 (= x145 x24)) (x117 (= x110 x97)) (x87 (= x56 x41)) (x53 (= x110 x62)) (x82 (= x68 x110)) (x156 (= x45 x68)) (x65 (= x14 x32)) (x35 (= x45 x119)) (x79 (= x10 x110)) (x85 (= x59 x32)) (x147 (= x158 x32)) (x50 (= x133 x110)) (x19 (= x102 x145)) (x151 (= x46 x32)) (x16 (= x89 x110)) (x70 (= x32 x68)) (x84 (= x31 x110)) (x104 (= x38 x110)) (x118 (= x2 x41)) (x3 (= x97 x41)) (x112 (= x45 x8)) (x1 (= x45 x38)) (x69 (= x119 x110)) (x76 (= x32 x102)) (x116 (= x142 x45)) (x96 (= x110 x66)) (x103 (= x48 x32)) (x90 (= x145 x89)) (x98 (= x32 x125)) (x135 (= x31 x145)) (x154 (= x45 x62)) (x52 (= x110 x14)) (x23 (= x110 x142)) (x106 (= x66 x45)) (x100 (= x62 x41)) (x67 (= x41 x38)) (x42 (= x32 x66)) (x128 (= x41 x142)) (x72 (= x48 x110)) (x141 (= x41 x24)) (x55 (= x45 x102)) (x159 (= x145 x46)) (x130 (= x110 x77)) (x17 (= x29 x145)) (x94 (= x56 x32)) (x132 (= x77 x41)) (x115 (= x97 x145)) (x114 (= x29 x45)) (x54 (= x145 x38)) (x30 (= x2 x32)) (x120 (= x97 x45)) (x138 (= x41 x14)) (x15 (= x32 x77)) (x47 (= x56 x110)) (x74 (= x41 x31)) (x121 (= x145 x62)) (x71 (= x119 x145)) (x136 (= x48 x45)) (x91 (= x41 x8)) (x83 (= x41 x48)) (x144 (= x8 x110)) (x95 (= x45 x14)) (x43 (= x110 x102)) (x49 (= x110 x158)) (x150 (= x45 x4)) (x122 (= x145 x14)) (x86 (= x46 x110)) (x81 (= x59 x41)) (x6 (= x41 x158)) (x11 (= x29 x41)) (x157 (= x32 x142)) (x51 (= x119 x41)) (x101 (= x125 x145)) (x139 (= x89 x45))) (and (and (and (and (and (and (and (or (or (or x114 (or x95 x1)) x116) x55) (or (or (or x120 (or x139 x1)) x35) x80)) (and (and (or (or x69 (or (or x16 x104) x117)) x130) (or (or x23 (or (or x104 x52) x148)) x43)) (and (and (or x126 (or x71 (or (or x54 x90) x115))) (or (or (or (or x54 x122) x17) x64) x19)) (and (or (or x157 (or x137 (or x65 x92))) x76) (or (or x109 (or (or x113 x92) x146)) x15))))) (and (or (or (or x3 (or x67 x134)) x51) x132) (or (or x128 (or (or x138 x67) x11)) x18))) (and (and (or (or x153 (or x28 (or x81 x138))) x118) (or (or (or (or x134 x81) x61) x74) x143)) (and (and (and (or (or x84 (or (or x37 x16) x86)) x96) (or (or (or (or x37 x52) x50) x93) x149)) (and (and (or (or (or x151 (or x113 x85)) x99) x42) (or (or (or x60 (or x65 x85)) x98) x30)) (and (or x124 (or x101 (or x9 (or x127 x122)))) (or x12 (or (or x159 (or x127 x90)) x135))))) (and (or x27 (or x88 (or (or x95 x33) x123))) (or x106 (or (or (or x33 x139) x129) x40)))))) (and (and (or (or (or x87 (or x28 x3)) x100) x6) (or (or x7 (or (or x61 x11) x87)) x141)) (and (and (and (and (or (or x121 (or (or x115 x9) x13)) x111) (or (or (or x13 (or x17 x159)) x26) x36)) (and (or x147 (or (or (or x146 x60) x94) x44)) (or (or (or (or x151 x137) x94) x39) x5))) (and (or x57 (or (or (or x86 x148) x47) x79)) (or (or x53 (or (or x117 x50) x47)) x49))) (and (or (or (or (or x120 x123) x22) x154) x63) (or (or (or x22 (or x114 x129)) x107) x131))))) (and (and (or (or (or x100 (or x74 x128)) x105) x152) (or x83 (or x105 (or (or x51 x153) x7)))) (and (and (and (or x108 (or x82 (or x53 (or x84 x23)))) (or (or (or x79 (or x69 x93)) x82) x72)) (and (and (or x155 (or x25 (or (or x64 x135) x121))) (or (or x25 (or x26 (or x101 x71))) x34)) (and (or x58 (or x70 (or x44 (or x157 x99)))) (or x103 (or (or x39 (or x109 x98)) x70))))) (and (or (or (or x154 (or x40 x116)) x156) x150) (or x136 (or x156 (or x107 (or x35 x88)))))))) (and (and (or x91 (or (or (or x118 x132) x141) x152)) (or x91 (or x83 (or (or x18 x143) x6)))) (and (and (or (or (or (or x55 x106) x63) x136) x112) (or x112 (or x150 (or (or x80 x27) x131)))) (and (and (or x144 (or (or (or x149 x130) x57) x108)) (or (or (or (or x96 x43) x49) x72) x144)) (and (and (or x20 (or (or (or x15 x30) x5) x58)) (or x20 (or (or x147 (or x42 x76)) x103))) (and (or (or (or (or x124 x126) x36) x155) x140) (or (or x34 (or x111 (or x19 x12))) x140))))))))))
(check-sat)
(exit)
